
Gurobi 11.0.2 (linux64) logging started Tue 03 Dec 2024 09:05:22 AM CET

Set parameter LogFile to value "./res/knapPI_11_50_1000/knapPI_11_50_1000_46/grb_dom.log"
Set parameter Presolve to value 0
Set parameter Aggregate to value 0
Set parameter Heuristics to value 0
Set parameter LPWarmStart to value 0
Set parameter NLPHeur to value 0
Set parameter PreDepRow to value 0
Set parameter PreDual to value 0
Set parameter RINS to value 0
Set parameter Symmetry to value 0
Set parameter NodeLimit to value 1
Set parameter Threads to value 1

Gurobi 11.0.2 (linux64) logging started Tue 03 Dec 2024 09:05:24 AM CET

Set parameter LogFile to value "./res/knapPI_11_50_1000/knapPI_11_50_1000_46/grb_dom.log"
Set parameter NLPHeur to value 0
Set parameter LPWarmStart to value 0
Set parameter PreDepRow to value 0
Set parameter Symmetry to value 0
Set parameter Presolve to value 0
Gurobi Optimizer version 11.0.2 build v11.0.2rc0 (linux64 - "Pop!_OS 20.04 LTS")

CPU model: Intel(R) Core(TM) i7-8650U CPU @ 1.90GHz, instruction set [SSE2|AVX|AVX2]
Thread count: 4 physical cores, 4 logical processors, using up to 1 threads

Optimize a model with 20098 rows, 50 columns and 377665 nonzeros
Model fingerprint: 0x08add7c5
Variable types: 0 continuous, 50 integer (50 binary)
Coefficient statistics:
  Matrix range     [1e+00, 2e+03]
  Objective range  [2e+02, 2e+03]
  Bounds range     [0e+00, 0e+00]
  RHS range        [2e+04, 2e+04]
Variable types: 0 continuous, 50 integer (50 binary)

Root relaxation: objective 2.945540e+04, 1 iterations, 0.06 seconds (0.01 work units)

    Nodes    |    Current Node    |     Objective Bounds      |     Work
 Expl Unexpl |  Obj  Depth IntInf | Incumbent    BestBd   Gap | It/Node Time

     0     0 29455.4021    0    1          - 29455.4021      -     -    0s
     0     0 29455.4021    0    1          - 29455.4021      -     -    0s
     0     0 29455.4021    0    2          - 29455.4021      -     -    0s
     0     0 29455.4021    0    1          - 29455.4021      -     -    0s
     0     0 29455.4021    0    1          - 29455.4021      -     -    0s
     0     0 29455.4021    0    3          - 29455.4021      -     -    1s
     0     0 29455.4021    0    3          - 29455.4021      -     -    1s
     0     0 29357.0000    0    1          - 29357.0000      -     -    1s
     0     0 29357.0000    0    2          - 29357.0000      -     -    1s
*    0     0               0    29357.000000 29357.0000  0.00%     -    2s

Cutting planes:
  Gomory: 1
  StrongCG: 1
  RLT: 1

Explored 1 nodes (18 simplex iterations) in 2.04 seconds (0.67 work units)
Thread count was 1 (of 4 available processors)

Solution count 1: 29357 

Optimal solution found (tolerance 1.00e-04)
Best objective 2.935700000000e+04, best bound 2.935700000000e+04, gap 0.0000%

User-callback calls 626, time in user-callback 0.01 sec
opt = true
obj = 29357.0
nb_dom_cuts = 20097
solved_time = 2.0436
opt_val = 29357.0
